Máquinas: 30
Tarefas: 150

Datas de Entrega:
7415
6316
6108
6948
7035
6889
6227
7256
6194
6704
6757
7256
6635
6131
6556
7146
6611
6358
6091
7086
6430
6126
6904
7625
7685
7166
6143
7486
6452
7137
6492
6501
6847
6006
7316
6490
6951
6769
6520
7287
6401
7637
7261
7292
6789
6746
6670
6545
6829
7379
7514
7216
7209
6988
6479
7158
7238
6057
6838
7208
6130
7028
6799
6917
6899
6843
6409
7612
7680
6146
6649
6136
6573
7510
6633
7497
7255
6765
7452
6884
7030
6512
6455
6483
7252
6374
6581
6011
7098
6747
7623
6621
7048
6233
7040
7006
7471
6431
7561
6220
6844
6083
7137
6708
6553
6323
6655
7017
6166
6314
7445
7534
7183
7495
6955
6052
6538
7009
6858
6903
6998
7442
6528
6689
7105
6824
7636
6638
7442
6615
6320
6806
7043
7571
7587
6291
6919
6462
6996
6253
6239
6017
6164
6722
7260
6876
6221
7017
7130
7125

Tempos de Processamento:
58 38 82 57 60 61 96 56 39 45 3 78 15 36 81 10 10 97 73 15 84 59 6 6 95 68 4 5 89 45 46 64 24 47 23 25 62 52 7 56 94 9 8 84 68 72 33 98 67 90 80 62 52 62 92 14 30 38 18 28 79 33 27 37 7 33 99 9 99 30 55 62 50 97 92 22 14 3 9 35 51 15 35 33 67 69 58 48 15 48 54 72 68 77 46 56 30 14 52 69 22 86 84 66 18 11 61 45 20 92 49 73 1 60 60 98 65 84 36 2 17 28 7 72 72 96 99 12 13 38 38 99 36 99 14 64 47 5 61 37 13 21 6 78 37 44 40 83 60 3 
3 92 50 94 79 98 71 9 27 25 79 93 13 54 95 6 5 35 7 19 75 9 25 24 81 97 63 10 39 93 71 36 29 7 33 21 18 12 58 81 49 91 91 44 92 25 62 76 72 18 93 84 64 82 18 50 85 11 95 63 62 25 43 13 72 3 81 78 20 91 17 67 60 84 88 5 95 26 94 81 39 61 22 19 25 33 33 83 85 5 2 91 52 2 17 62 65 37 60 34 1 74 31 53 76 30 24 95 33 74 54 41 94 64 96 13 96 17 9 6 73 6 57 10 97 57 23 76 29 62 100 66 79 24 98 95 87 33 43 38 45 79 63 40 70 36 36 64 80 31 
10 83 45 43 34 25 71 32 3 88 18 25 98 74 29 12 9 16 40 66 95 40 26 69 1 84 93 85 5 64 35 17 58 88 8 75 47 4 36 8 81 65 80 49 67 93 85 54 81 58 96 23 45 18 53 10 50 36 67 23 19 100 14 86 98 85 56 46 42 15 73 85 28 50 72 75 95 40 68 69 95 15 42 21 92 62 12 19 29 25 94 12 58 75 38 24 55 88 8 68 97 87 50 20 93 4 91 99 62 68 79 21 56 24 100 100 72 1 96 21 67 20 39 77 43 39 46 96 39 29 34 94 10 75 100 89 47 33 61 5 64 13 40 51 48 41 62 56 50 72 
50 67 88 22 25 61 71 26 63 53 81 28 56 7 7 53 97 90 57 63 40 6 93 70 11 36 77 34 69 1 22 89 56 97 80 97 82 39 3 20 93 43 70 66 13 31 22 19 62 57 63 7 23 47 14 14 71 56 81 62 71 80 22 19 42 90 54 82 30 51 13 0 0 0 0 0 0 0 0 0 0 0 0 0 0 0 0 0 0 0 0 0 0 0 0 0 0 0 0 0 0 0 0 0 0 0 0 0 0 0 0 0 0 0 0 0 0 0 0 0 0 0 0 0 0 0 0 0 0 0 0 0 0 0 0 0 0 0 0 0 0 0 0 0 0 0 0 0 0 0 
0 0 0 0 0 0 0 0 0 0 0 0 0 0 0 0 0 0 0 0 0 0 0 0 0 0 0 0 0 0 0 0 0 0 0 0 0 0 0 0 0 0 0 0 0 0 0 0 0 0 0 0 0 0 0 0 0 0 0 0 0 0 0 0 0 0 0 0 0 0 0 0 0 0 0 0 0 0 0 0 0 0 0 0 0 0 0 0 0 0 0 0 0 0 0 0 0 0 0 0 0 0 0 0 0 0 0 0 0 0 0 0 0 0 0 0 0 0 0 0 0 0 0 0 0 0 0 0 0 0 0 0 0 0 0 0 0 0 0 0 0 0 0 0 0 0 0 0 0 0 
0 0 0 0 0 0 0 0 0 0 0 0 0 0 0 0 0 0 0 0 0 0 0 0 0 0 0 0 0 0 0 0 0 0 0 0 0 0 0 0 0 0 0 0 0 0 0 0 0 0 0 0 0 0 0 0 0 0 0 0 0 0 0 0 0 0 0 0 0 0 0 0 0 0 0 0 0 0 0 0 0 0 0 0 0 0 0 0 0 0 0 0 0 0 0 0 0 0 0 0 0 0 0 0 0 0 0 0 0 0 0 0 0 0 0 0 0 0 0 0 0 0 0 0 0 0 0 0 0 0 0 0 0 0 0 0 0 0 0 0 0 0 0 0 0 0 0 0 0 0 
0 0 0 0 0 0 0 0 0 0 0 0 0 0 0 0 0 0 0 0 0 0 0 0 0 0 0 0 0 0 0 0 0 0 0 0 0 0 0 0 0 0 0 0 0 0 0 0 0 0 0 0 0 0 0 0 0 0 0 0 0 0 0 0 0 0 0 0 0 0 0 0 0 0 0 0 0 0 0 0 0 0 0 0 0 0 0 0 0 0 0 0 0 0 0 0 0 0 0 0 0 0 0 0 0 0 0 0 0 0 0 0 0 0 0 0 0 0 0 0 0 0 0 0 0 0 0 0 0 0 0 0 0 0 0 0 0 0 0 0 0 0 0 0 0 0 0 0 0 0 
0 0 0 0 0 0 0 0 0 0 0 0 0 0 0 0 0 0 0 0 0 0 0 0 0 0 0 0 0 0 0 0 0 0 0 0 0 0 0 0 0 0 0 0 0 0 0 0 0 0 0 0 0 0 0 0 0 0 0 0 0 0 0 0 0 0 0 0 0 0 0 0 0 0 0 0 0 0 0 0 0 0 0 0 0 0 0 0 0 0 0 0 0 0 0 0 0 0 0 0 0 0 0 0 0 0 0 0 0 0 0 0 0 0 0 0 0 0 0 0 0 0 0 0 0 0 0 0 0 0 0 0 0 0 0 0 0 0 0 0 0 0 0 0 0 0 0 0 0 0 
0 0 0 0 0 0 0 0 0 0 0 0 0 0 0 0 0 0 0 0 0 0 0 0 0 0 0 0 0 0 0 0 0 0 0 0 0 0 0 0 0 0 0 0 0 0 0 0 0 0 0 0 0 0 0 0 0 0 0 0 0 0 0 0 0 0 0 0 0 0 0 0 0 0 0 0 0 0 0 0 0 0 0 0 0 0 0 0 0 0 0 0 0 0 0 0 0 0 0 0 0 0 0 0 0 0 0 0 0 0 0 0 0 0 0 0 0 0 0 0 0 0 0 0 0 0 0 0 0 0 0 0 0 0 0 0 0 0 0 0 0 0 0 0 0 0 0 0 0 0 
0 0 0 0 0 0 0 0 0 0 0 0 0 0 0 0 0 0 0 0 0 0 0 0 0 0 0 0 0 0 0 0 0 0 0 0 0 0 0 0 0 0 0 0 0 0 0 0 0 0 0 0 0 0 0 0 0 0 0 0 0 0 0 0 0 0 0 0 0 0 0 0 0 0 0 0 0 0 0 0 0 0 0 0 0 0 0 0 0 0 0 0 0 0 0 0 0 0 0 0 0 0 0 0 0 0 0 0 0 0 0 0 0 0 0 0 0 0 0 0 0 0 0 0 0 0 0 0 0 0 0 0 0 0 0 0 0 0 0 0 0 0 0 0 0 0 0 0 0 0 
0 0 0 0 0 0 0 0 0 0 0 0 0 0 0 0 0 0 0 0 0 0 0 0 0 0 0 0 0 0 0 0 0 0 0 0 0 0 0 0 0 0 0 0 0 0 0 0 0 0 0 0 0 0 0 0 0 0 0 0 0 0 0 0 0 0 0 0 0 0 0 0 0 0 0 0 0 0 0 0 0 0 0 0 0 0 0 0 0 0 0 0 0 0 0 0 0 0 0 0 0 0 0 0 0 0 0 0 0 0 0 0 0 0 0 0 0 0 0 0 0 0 0 0 0 0 0 0 0 0 0 0 0 0 0 0 0 0 0 0 0 0 0 0 0 0 0 0 0 0 
0 0 0 0 0 0 0 0 0 0 0 0 0 0 0 0 0 0 0 0 0 0 0 0 0 0 0 0 0 0 0 0 0 0 0 0 0 0 0 0 0 0 0 0 0 0 0 0 0 0 0 0 0 0 0 0 0 0 0 0 0 0 0 0 0 0 0 0 0 0 0 0 0 0 0 0 0 0 0 0 0 0 0 0 0 0 0 0 0 0 0 0 0 0 0 0 0 0 0 0 0 0 0 0 0 0 0 0 0 0 0 0 0 0 0 0 0 0 0 0 0 0 0 0 0 0 0 0 0 0 0 0 0 0 0 0 0 0 0 0 0 0 0 0 0 0 0 0 0 0 
0 0 0 0 0 0 0 0 0 0 0 0 0 0 0 0 0 0 0 0 0 0 0 0 0 0 0 0 0 0 0 0 0 0 0 0 0 0 0 0 0 0 0 0 0 0 0 0 0 0 0 0 0 0 0 0 0 0 0 0 0 0 0 0 0 0 0 0 0 0 0 0 0 0 0 0 0 0 0 0 0 0 0 0 0 0 0 0 0 0 0 0 0 0 0 0 0 0 0 0 0 0 0 0 0 0 0 0 0 0 0 0 0 0 0 0 0 0 0 0 0 0 0 0 0 0 0 0 0 0 0 0 0 0 0 0 0 0 0 0 0 0 0 0 0 0 0 0 0 0 
0 0 0 0 0 0 0 0 0 0 0 0 0 0 0 0 0 0 0 0 0 0 0 0 0 0 0 0 0 0 0 0 0 0 0 0 0 0 0 0 0 0 0 0 0 0 0 0 0 0 0 0 0 0 0 0 0 0 0 0 0 0 0 0 0 0 0 0 0 0 0 0 0 0 0 0 0 0 0 0 0 0 0 0 0 0 0 0 0 0 0 0 0 0 0 0 0 0 0 0 0 0 0 0 0 0 0 0 0 0 0 0 0 0 0 0 0 0 0 0 0 0 0 0 0 0 0 0 0 0 0 0 0 0 0 0 0 0 0 0 0 0 0 0 0 0 0 0 0 0 
0 0 0 0 0 0 0 0 0 0 0 0 0 0 0 0 0 0 0 0 0 0 0 0 0 0 0 0 0 0 0 0 0 0 0 0 0 0 0 0 0 0 0 0 0 0 0 0 0 0 0 0 0 0 0 0 0 0 0 0 0 0 0 0 0 0 0 0 0 0 0 0 0 0 0 0 0 0 0 0 0 0 0 0 0 0 0 0 0 0 0 0 0 0 0 0 0 0 0 0 0 0 0 0 0 0 0 0 0 0 0 0 0 0 0 0 0 0 0 0 0 0 0 0 0 0 0 0 0 0 0 0 0 0 0 0 0 0 0 0 0 0 0 0 0 0 0 0 0 0 
0 0 0 0 0 0 0 0 0 0 0 0 0 0 0 0 0 0 0 0 0 0 0 0 0 0 0 0 0 0 0 0 0 0 0 0 0 0 0 0 0 0 0 0 0 0 0 0 0 0 0 0 0 0 0 0 0 0 0 0 0 0 0 0 0 0 0 0 0 0 0 0 0 0 0 0 0 0 0 0 0 0 0 0 0 0 0 0 0 0 0 0 0 0 0 0 0 0 0 0 0 0 0 0 0 0 0 0 0 0 0 0 0 0 0 0 0 0 0 0 0 0 0 0 0 0 0 0 0 0 0 0 0 0 0 0 0 0 0 0 0 0 0 0 0 0 0 0 0 0 
0 0 0 0 0 0 0 0 0 0 0 0 0 0 0 0 0 0 0 0 0 0 0 0 0 0 0 0 0 0 0 0 0 0 0 0 0 0 0 0 0 0 0 0 0 0 0 0 0 0 0 0 0 0 0 0 0 0 0 0 0 0 0 0 0 0 0 0 0 0 0 0 0 0 0 0 0 0 0 0 0 0 0 0 0 0 0 0 0 0 0 0 0 0 0 0 0 0 0 0 0 0 0 0 0 0 0 0 0 0 0 0 0 0 0 0 0 0 0 0 0 0 0 0 0 0 0 0 0 0 0 0 0 0 0 0 0 0 0 0 0 0 0 0 0 0 0 0 0 0 
0 0 0 0 0 0 0 0 0 0 0 0 0 0 0 0 0 0 0 0 0 0 0 0 0 0 0 0 0 0 0 0 0 0 0 0 0 0 0 0 0 0 0 0 0 0 0 0 0 0 0 0 0 0 0 0 0 0 0 0 0 0 0 0 0 0 0 0 0 0 0 0 0 0 0 0 0 0 0 0 0 0 0 0 0 0 0 0 0 0 0 0 0 0 0 0 0 0 0 0 0 0 0 0 0 0 0 0 0 0 0 0 0 0 0 0 0 0 0 0 0 0 0 0 0 0 0 0 0 0 0 0 0 0 0 0 0 0 0 0 0 0 0 0 0 0 0 0 0 0 
0 0 0 0 0 0 0 0 0 0 0 0 0 0 0 0 0 0 0 0 0 0 0 0 0 0 0 0 0 0 0 0 0 0 0 0 0 0 0 0 0 0 0 0 0 0 0 0 0 0 0 0 0 0 0 0 0 0 0 0 0 0 0 0 0 0 0 0 0 0 0 0 0 0 0 0 0 0 0 0 0 0 0 0 0 0 0 0 0 0 0 0 0 0 0 0 0 0 0 0 0 0 0 0 0 0 0 0 0 0 0 0 0 0 0 0 0 0 0 0 0 0 0 0 0 0 0 0 0 0 0 0 0 0 0 0 0 0 0 0 0 0 0 0 0 0 0 0 0 0 
0 0 0 0 0 0 0 0 0 0 0 0 0 0 0 0 0 0 0 0 0 0 0 0 0 0 0 0 0 0 0 0 0 0 0 0 0 0 0 0 0 0 0 0 0 0 0 0 0 0 0 0 0 0 0 0 0 0 0 0 0 0 0 0 0 0 0 0 0 0 0 0 0 0 0 0 0 0 0 0 0 0 0 0 0 0 0 0 0 0 0 0 0 0 0 0 0 0 0 0 0 0 0 0 0 0 0 0 0 0 0 0 0 0 0 0 0 0 0 0 0 0 0 0 0 0 0 0 0 0 0 0 0 0 0 0 0 0 0 0 0 0 0 0 0 0 0 0 0 0 
0 0 0 0 0 0 0 0 0 0 0 0 0 0 0 0 0 0 0 0 0 0 0 0 0 0 0 0 0 0 0 0 0 0 0 0 0 0 0 0 0 0 0 0 0 0 0 0 0 0 0 0 0 0 0 0 0 0 0 0 0 0 0 0 0 0 0 0 0 0 0 0 0 0 0 0 0 0 0 0 0 0 0 0 0 0 0 0 0 0 0 0 0 0 0 0 0 0 0 0 0 0 0 0 0 0 0 0 0 0 0 0 0 0 0 0 0 0 0 0 0 0 0 0 0 0 0 0 0 0 0 0 0 0 0 0 0 0 0 0 0 0 0 0 0 0 0 0 0 0 
0 0 0 0 0 0 0 0 0 0 0 0 0 0 0 0 0 0 0 0 0 0 0 0 0 0 0 0 0 0 0 0 0 0 0 0 0 0 0 0 0 0 0 0 0 0 0 0 0 0 0 0 0 0 0 0 0 0 0 0 0 0 0 0 0 0 0 0 0 0 0 0 0 0 0 0 0 0 0 0 0 0 0 0 0 0 0 0 0 0 0 0 0 0 0 0 0 0 0 0 0 0 0 0 0 0 0 0 0 0 0 0 0 0 0 0 0 0 0 0 0 0 0 0 0 0 0 0 0 0 0 0 0 0 0 0 0 0 0 0 0 0 0 0 0 0 0 0 0 0 
0 0 0 0 0 0 0 0 0 0 0 0 0 0 0 0 0 0 0 0 0 0 0 0 0 0 0 0 0 0 0 0 0 0 0 0 0 0 0 0 0 0 0 0 0 0 0 0 0 0 0 0 0 0 0 0 0 0 0 0 0 0 0 0 0 0 0 0 0 0 0 0 0 0 0 0 0 0 0 0 0 0 0 0 0 0 0 0 0 0 0 0 0 0 0 0 0 0 0 0 0 0 0 0 0 0 0 0 0 0 0 0 0 0 0 0 0 0 0 0 0 0 0 0 0 0 0 0 0 0 0 0 0 0 0 0 0 0 0 0 0 0 0 0 0 0 0 0 0 0 
0 0 0 0 0 0 0 0 0 0 0 0 0 0 0 0 0 0 0 0 0 0 0 0 0 0 0 0 0 0 0 0 0 0 0 0 0 0 0 0 0 0 0 0 0 0 0 0 0 0 0 0 0 0 0 0 0 0 0 0 0 0 0 0 0 0 0 0 0 0 0 0 0 0 0 0 0 0 0 0 0 0 0 0 0 0 0 0 0 0 0 0 0 0 0 0 0 0 0 0 0 0 0 0 0 0 0 0 0 0 0 0 0 0 0 0 0 0 0 0 0 0 0 0 0 0 0 0 0 0 0 0 0 0 0 0 0 0 0 0 0 0 0 0 0 0 0 0 0 0 
0 0 0 0 0 0 0 0 0 0 0 0 0 0 0 0 0 0 0 0 0 0 0 0 0 0 0 0 0 0 0 0 0 0 0 0 0 0 0 0 0 0 0 0 0 0 0 0 0 0 0 0 0 0 0 0 0 0 0 0 0 0 0 0 0 0 0 0 0 0 0 0 0 0 0 0 0 0 0 0 0 0 0 0 0 0 0 0 0 0 0 0 0 0 0 0 0 0 0 0 0 0 0 0 0 0 0 0 0 0 0 0 0 0 0 0 0 0 0 0 0 0 0 0 0 0 0 0 0 0 0 0 0 0 0 0 0 0 0 0 0 0 0 0 0 0 0 0 0 0 
0 0 0 0 0 0 0 0 0 0 0 0 0 0 0 0 0 0 0 0 0 0 0 0 0 0 0 0 0 0 0 0 0 0 0 0 0 0 0 0 0 0 0 0 0 0 0 0 0 0 0 0 0 0 0 0 0 0 0 0 0 0 0 0 0 0 0 0 0 0 0 0 0 0 0 0 0 0 0 0 0 0 0 0 0 0 0 0 0 0 0 0 0 0 0 0 0 0 0 0 0 0 0 0 0 0 0 0 0 0 0 0 0 0 0 0 0 0 0 0 0 0 0 0 0 0 0 0 0 0 0 0 0 0 0 0 0 0 0 0 0 0 0 0 0 0 0 0 0 0 
0 0 0 0 0 0 0 0 0 0 0 0 0 0 0 0 0 0 0 0 0 0 0 0 0 0 0 0 0 0 0 0 0 0 0 0 0 0 0 0 0 0 0 0 0 0 0 0 0 0 0 0 0 0 0 0 0 0 0 0 0 0 0 0 0 0 0 0 0 0 0 0 0 0 0 0 0 0 0 0 0 0 0 0 0 0 0 0 0 0 0 0 0 0 0 0 0 0 0 0 0 0 0 0 0 0 0 0 0 0 0 0 0 0 0 0 0 0 0 0 0 0 0 0 0 0 0 0 0 0 0 0 0 0 0 0 0 0 0 0 0 0 0 0 0 0 0 0 0 0 
0 0 0 0 0 0 0 0 0 0 0 0 0 0 0 0 0 0 0 0 0 0 0 0 0 0 0 0 0 0 0 0 0 0 0 0 0 0 0 0 0 0 0 0 0 0 0 0 0 0 0 0 0 0 0 0 0 0 0 0 0 0 0 0 0 0 0 0 0 0 0 0 0 0 0 0 0 0 0 0 0 0 0 0 0 0 0 0 0 0 0 0 0 0 0 0 0 0 0 0 0 0 0 0 0 0 0 0 0 0 0 0 0 0 0 0 0 0 0 0 0 0 0 0 0 0 0 0 0 0 0 0 0 0 0 0 0 0 0 0 0 0 0 0 0 0 0 0 0 0 
0 0 0 0 0 0 0 0 0 0 0 0 0 0 0 0 0 0 0 0 0 0 0 0 0 0 0 0 0 0 0 0 0 0 0 0 0 0 0 0 0 0 0 0 0 0 0 0 0 0 0 0 0 0 0 0 0 0 0 0 0 0 0 0 0 0 0 0 0 0 0 0 0 0 0 0 0 0 0 0 0 0 0 0 0 0 0 0 0 0 0 0 0 0 0 0 0 0 0 0 0 0 0 0 0 0 0 0 0 0 0 0 0 0 0 0 0 0 0 0 0 0 0 0 0 0 0 0 0 0 0 0 0 0 0 0 0 0 0 0 0 0 0 0 0 0 0 0 0 0 
0 0 0 0 0 0 0 0 0 0 0 0 0 0 0 0 0 0 0 0 0 0 0 0 0 0 0 0 0 0 0 0 0 0 0 0 0 0 0 0 0 0 0 0 0 0 0 0 0 0 0 0 0 0 0 0 0 0 0 0 0 0 0 0 0 0 0 0 0 0 0 0 0 0 0 0 0 0 0 0 0 0 0 0 0 0 0 0 0 0 0 0 0 0 0 0 0 0 0 0 0 0 0 0 0 0 0 0 0 0 0 0 0 0 0 0 0 0 0 0 0 0 0 0 0 0 0 0 0 0 0 0 0 0 0 0 0 0 0 0 0 0 0 0 0 0 0 0 0 0 

Ordenação por dueDates - Solução Inicial:
(7, 604.563)
(41, 605.773)
(21, 656.122)
(67, 663)
(2, 676.714)
(51, 678.976)
(3, 691.472)
(49, 726.489)
(102, 738.826)
(34, 753.891)
(26, 754.316)
(136, 761.008)
(27, 777.595)
(59, 785.977)
(132, 788.34)
(75, 789.643)
(48, 794.939)
(61, 796.104)
(18, 801.429)
(110, 809.487)
(115, 815.039)
(117, 841.803)
(6, 843.551)
(45, 848.625)
(72, 860.187)
(116, 860.474)
(43, 874.819)
(108, 880.795)
(62, 885.882)
(36, 893.119)
(44, 900.247)
(46, 915.747)
(57, 920.085)
(15, 927.736)
(65, 945.068)
(32, 946.748)
(10, 953.175)
(29, 958.218)
(4, 965)
(12, 971.786)
(66, 972.938)
(74, 975.325)
(70, 985.989)
(47, 990.594)
(50, 992.691)
(37, 997.751)
(54, 1003.06)
(125, 1005.42)
(19, 1032.37)
(148, 1036.99)
(105, 1051.28)
(30, 1054.73)
(68, 1062.14)
(5, 1065.91)
(126, 1066.25)
(77, 1066.91)
(135, 1073.63)
(14, 1075.61)
(128, 1082.28)
(100, 1091.23)
(13, 1093.68)
(55, 1098.14)
(42, 1101.49)
(131, 1102.33)
(80, 1116.32)
(31, 1119.31)
(11, 1119.94)
(149, 1125.79)
(107, 1134.38)
(92, 1135.03)
(81, 1140)
(137, 1146.8)
(134, 1147.12)
(86, 1165.98)
(53, 1175.38)
(85, 1182.39)
(93, 1187.87)
(144, 1193.25)
(88, 1202.2)
(69, 1206.28)
(94, 1214.22)
(25, 1226.33)
(111, 1227.2)
(60, 1228.64)
(33, 1230)
(52, 1230)
(124, 1262.08)
(71, 1262.47)
(139, 1272)
(58, 1288.72)
(103, 1297.64)
(20, 1304.17)
(79, 1307.37)
(40, 1324.91)
(121, 1337.2)
(64, 1338.77)
(147, 1352.39)
(24, 1353.55)
(127, 1363.57)
(23, 1380.8)
(98, 1387.99)
(145, 1405.16)
(9, 1407.73)
(113, 1427.09)
(73, 1428.91)
(104, 1447.77)
(119, 1459.15)
(96, 1480.14)
(97, 1494.2)
(114, 1519.26)
(35, 1524.17)
(91, 1524.6)
(141, 1534.18)
(130, 1538.37)
(142, 1597.43)
(109, 1608.52)
(22, 1612.11)
(17, 1639.09)
(89, 1650.7)
(112, 1674.22)
(28, 1675.97)
(133, 1690.32)
(143, 1696.51)
(146, 1704.79)
(101, 1711)
(8, 1769.76)
(1, 1838.43)
(39, 1880.77)
(99, 1890.25)
(38, 1897.85)
(123, 1901.36)
(87, 1916.8)
(63, 1924.25)
(83, 1956.06)
(150, 2016.51)
(118, 2061.47)
(95, 2091.09)
(82, 2146.81)
(76, 2205)
(140, 2344.88)
(56, 2440.23)
(90, 2595)
(16, 2646.67)
(84, 2664.25)
(138, 2730.42)
(129, 2756.3)
(78, 2941.3)
(122, 4134.44)
(106, 4215.33)
(120, 7141.03)

Calculo do completion time:
96 167 238 309 309 309 309 309 309 309 309 309 309 309 309 309 309 309 309 309 309 309 309 309 309 309 309 309 309 309 
190 239 320 413 413 413 413 413 413 413 413 413 413 413 413 413 413 413 413 413 413 413 413 413 413 413 413 413 413 413 
274 349 444 484 484 484 484 484 484 484 484 484 484 484 484 484 484 484 484 484 484 484 484 484 484 484 484 484 484 484 
373 454 510 564 564 564 564 564 564 564 564 564 564 564 564 564 564 564 564 564 564 564 564 564 564 564 564 564 564 564 
411 546 629 696 696 696 696 696 696 696 696 696 696 696 696 696 696 696 696 696 696 696 696 696 696 696 696 696 696 696 
491 639 735 798 798 798 798 798 798 798 798 798 798 798 798 798 798 798 798 798 798 798 798 798 798 798 798 798 798 798 
573 689 780 886 886 886 886 886 886 886 886 886 886 886 886 886 886 886 886 886 886 886 886 886 886 886 886 886 886 886 
640 761 861 948 948 948 948 948 948 948 948 948 948 948 948 948 948 948 948 948 948 948 948 948 948 948 948 948 948 948 
726 835 948 948 948 948 948 948 948 948 948 948 948 948 948 948 948 948 948 948 948 948 948 948 948 948 948 948 948 948 
773 842 1036 1133 1133 1133 1133 1133 1133 1133 1133 1133 1133 1133 1133 1133 1133 1133 1133 1133 1133 1133 1133 1133 1133 1133 1133 1133 1133 1133 
841 939 1120 1169 1169 1169 1169 1169 1169 1169 1169 1169 1169 1169 1169 1169 1169 1169 1169 1169 1169 1169 1169 1169 1169 1169 1169 1169 1169 1169 
905 1034 1209 1209 1209 1209 1209 1209 1209 1209 1209 1209 1209 1209 1209 1209 1209 1209 1209 1209 1209 1209 1209 1209 1209 1209 1209 1209 1209 1209 
909 1097 1302 1379 1379 1379 1379 1379 1379 1379 1379 1379 1379 1379 1379 1379 1379 1379 1379 1379 1379 1379 1379 1379 1379 1379 1379 1379 1379 1379 
927 1192 1369 1460 1460 1460 1460 1460 1460 1460 1460 1460 1460 1460 1460 1460 1460 1460 1460 1460 1460 1460 1460 1460 1460 1460 1460 1460 1460 1460 
1026 1258 1463 1463 1463 1463 1463 1463 1463 1463 1463 1463 1463 1463 1463 1463 1463 1463 1463 1463 1463 1463 1463 1463 1463 1463 1463 1463 1463 1463 
1118 1346 1535 1535 1535 1535 1535 1535 1535 1535 1535 1535 1535 1535 1535 1535 1535 1535 1535 1535 1535 1535 1535 1535 1535 1535 1535 1535 1535 1535 
1216 1422 1589 1608 1608 1608 1608 1608 1608 1608 1608 1608 1608 1608 1608 1608 1608 1608 1608 1608 1608 1608 1608 1608 1608 1608 1608 1608 1608 1608 
1295 1484 1608 1679 1679 1679 1679 1679 1679 1679 1679 1679 1679 1679 1679 1679 1679 1679 1679 1679 1679 1679 1679 1679 1679 1679 1679 1679 1679 1679 
1392 1519 1624 1769 1769 1769 1769 1769 1769 1769 1769 1769 1769 1769 1769 1769 1769 1769 1769 1769 1769 1769 1769 1769 1769 1769 1769 1769 1769 1769 
1484 1593 1692 1769 1769 1769 1769 1769 1769 1769 1769 1769 1769 1769 1769 1769 1769 1769 1769 1769 1769 1769 1769 1769 1769 1769 1769 1769 1769 1769 
1544 1689 1792 1792 1792 1792 1792 1792 1792 1792 1792 1792 1792 1792 1792 1792 1792 1792 1792 1792 1792 1792 1792 1792 1792 1792 1792 1792 1792 1792 
1609 1785 1864 1864 1864 1864 1864 1864 1864 1864 1864 1864 1864 1864 1864 1864 1864 1864 1864 1864 1864 1864 1864 1864 1864 1864 1864 1864 1864 1864 
1670 1883 1908 1969 1969 1969 1969 1969 1969 1969 1969 1969 1969 1969 1969 1969 1969 1969 1969 1969 1969 1969 1969 1969 1969 1969 1969 1969 1969 1969 
1738 1975 2042 2055 2055 2055 2055 2055 2055 2055 2055 2055 2055 2055 2055 2055 2055 2055 2055 2055 2055 2055 2055 2055 2055 2055 2055 2055 2055 2055 
1800 2042 2127 2127 2127 2127 2127 2127 2127 2127 2127 2127 2127 2127 2127 2127 2127 2127 2127 2127 2127 2127 2127 2127 2127 2127 2127 2127 2127 2127 
1898 2055 2227 2227 2227 2227 2227 2227 2227 2227 2227 2227 2227 2227 2227 2227 2227 2227 2227 2227 2227 2227 2227 2227 2227 2227 2227 2227 2227 2227 
1906 2146 2307 2377 2377 2377 2377 2377 2377 2377 2377 2377 2377 2377 2377 2377 2377 2377 2377 2377 2377 2377 2377 2377 2377 2377 2377 2377 2377 2377 
1951 2241 2406 2406 2406 2406 2406 2406 2406 2406 2406 2406 2406 2406 2406 2406 2406 2406 2406 2406 2406 2406 2406 2406 2406 2406 2406 2406 2406 2406 
1984 2266 2506 2586 2586 2586 2586 2586 2586 2586 2586 2586 2586 2586 2586 2586 2586 2586 2586 2586 2586 2586 2586 2586 2586 2586 2586 2586 2586 2586 
2009 2287 2581 2683 2683 2683 2683 2683 2683 2683 2683 2683 2683 2683 2683 2683 2683 2683 2683 2683 2683 2683 2683 2683 2683 2683 2683 2683 2683 2683 
2093 2331 2630 2749 2749 2749 2749 2749 2749 2749 2749 2749 2749 2749 2749 2749 2749 2749 2749 2749 2749 2749 2749 2749 2749 2749 2749 2749 2749 2749 
2165 2356 2723 2780 2780 2780 2780 2780 2780 2780 2780 2780 2780 2780 2780 2780 2780 2780 2780 2780 2780 2780 2780 2780 2780 2780 2780 2780 2780 2780 
2195 2441 2773 2851 2851 2851 2851 2851 2851 2851 2851 2851 2851 2851 2851 2851 2851 2851 2851 2851 2851 2851 2851 2851 2851 2851 2851 2851 2851 2851 
2276 2536 2802 2858 2858 2858 2858 2858 2858 2858 2858 2858 2858 2858 2858 2858 2858 2858 2858 2858 2858 2858 2858 2858 2858 2858 2858 2858 2858 2858 
2283 2608 2900 2942 2942 2942 2942 2942 2942 2942 2942 2942 2942 2942 2942 2942 2942 2942 2942 2942 2942 2942 2942 2942 2942 2942 2942 2942 2942 2942 
2347 2644 2917 3031 3031 3031 3031 3031 3031 3031 3031 3031 3031 3031 3031 3031 3031 3031 3031 3031 3031 3031 3031 3031 3031 3031 3031 3031 3031 3031 
2392 2669 3005 3084 3084 3084 3084 3084 3084 3084 3084 3084 3084 3084 3084 3084 3084 3084 3084 3084 3084 3084 3084 3084 3084 3084 3084 3084 3084 3084 
2481 2708 3010 3153 3153 3153 3153 3153 3153 3153 3153 3153 3153 3153 3153 3153 3153 3153 3153 3153 3153 3153 3153 3153 3153 3153 3153 3153 3153 3153 
2538 2802 3053 3175 3175 3175 3175 3175 3175 3175 3175 3175 3175 3175 3175 3175 3175 3175 3175 3175 3175 3175 3175 3175 3175 3175 3175 3175 3175 3175 
2616 2895 3078 3203 3203 3203 3203 3203 3203 3203 3203 3203 3203 3203 3203 3203 3203 3203 3203 3203 3203 3203 3203 3203 3203 3203 3203 3203 3203 3203 
2649 2898 3163 3293 3293 3293 3293 3293 3293 3293 3293 3293 3293 3293 3293 3293 3293 3293 3293 3293 3293 3293 3293 3293 3293 3293 3293 3293 3293 3293 
2746 2982 3213 3293 3293 3293 3293 3293 3293 3293 3293 3293 3293 3293 3293 3293 3293 3293 3293 3293 3293 3293 3293 3293 3293 3293 3293 3293 3293 3293 
2776 3073 3228 3344 3344 3344 3344 3344 3344 3344 3344 3344 3344 3344 3344 3344 3344 3344 3344 3344 3344 3344 3344 3344 3344 3344 3344 3344 3344 3344 
2809 3135 3313 3366 3366 3366 3366 3366 3366 3366 3366 3366 3366 3366 3366 3366 3366 3366 3366 3366 3366 3366 3366 3366 3366 3366 3366 3366 3366 3366 
2899 3153 3371 3428 3428 3428 3428 3428 3428 3428 3428 3428 3428 3428 3428 3428 3428 3428 3428 3428 3428 3428 3428 3428 3428 3428 3428 3428 3428 3428 
2961 3171 3418 3510 3510 3510 3510 3510 3510 3510 3510 3510 3510 3510 3510 3510 3510 3510 3510 3510 3510 3510 3510 3510 3510 3510 3510 3510 3510 3510 
3023 3253 3436 3557 3557 3557 3557 3557 3557 3557 3557 3557 3557 3557 3557 3557 3557 3557 3557 3557 3557 3557 3557 3557 3557 3557 3557 3557 3557 3557 
3095 3350 3479 3557 3557 3557 3557 3557 3557 3557 3557 3557 3557 3557 3557 3557 3557 3557 3557 3557 3557 3557 3557 3557 3557 3557 3557 3557 3557 3557 
3168 3357 3519 3614 3614 3614 3614 3614 3614 3614 3614 3614 3614 3614 3614 3614 3614 3614 3614 3614 3614 3614 3614 3614 3614 3614 3614 3614 3614 3614 
3251 3421 3575 3614 3614 3614 3614 3614 3614 3614 3614 3614 3614 3614 3614 3614 3614 3614 3614 3614 3614 3614 3614 3614 3614 3614 3614 3614 3614 3614 
3269 3497 3668 3668 3668 3668 3668 3668 3668 3668 3668 3668 3668 3668 3668 3668 3668 3668 3668 3668 3668 3668 3668 3668 3668 3668 3668 3668 3668 3668 
3314 3590 3732 3733 3733 3733 3733 3733 3733 3733 3733 3733 3733 3733 3733 3733 3733 3733 3733 3733 3733 3733 3733 3733 3733 3733 3733 3733 3733 3733 
3323 3668 3778 3860 3860 3860 3860 3860 3860 3860 3860 3860 3860 3860 3860 3860 3860 3860 3860 3860 3860 3860 3860 3860 3860 3860 3860 3860 3860 3860 
3383 3747 3812 3885 3885 3885 3885 3885 3885 3885 3885 3885 3885 3885 3885 3885 3885 3885 3885 3885 3885 3885 3885 3885 3885 3885 3885 3885 3885 3885 
3479 3804 3851 3885 3885 3885 3885 3885 3885 3885 3885 3885 3885 3885 3885 3885 3885 3885 3885 3885 3885 3885 3885 3885 3885 3885 3885 3885 3885 3885 
3493 3899 3994 3994 3994 3994 3994 3994 3994 3994 3994 3994 3994 3994 3994 3994 3994 3994 3994 3994 3994 3994 3994 3994 3994 3994 3994 3994 3994 3994 
3507 3997 4097 4097 4097 4097 4097 4097 4097 4097 4097 4097 4097 4097 4097 4097 4097 4097 4097 4097 4097 4097 4097 4097 4097 4097 4097 4097 4097 4097 
3543 4051 4171 4178 4178 4178 4178 4178 4178 4178 4178 4178 4178 4178 4178 4178 4178 4178 4178 4178 4178 4178 4178 4178 4178 4178 4178 4178 4178 4178 
3555 4127 4267 4267 4267 4267 4267 4267 4267 4267 4267 4267 4267 4267 4267 4267 4267 4267 4267 4267 4267 4267 4267 4267 4267 4267 4267 4267 4267 4267 
3624 4161 4335 4335 4335 4335 4335 4335 4335 4335 4335 4335 4335 4335 4335 4335 4335 4335 4335 4335 4335 4335 4335 4335 4335 4335 4335 4335 4335 4335 
3639 4174 4433 4489 4489 4489 4489 4489 4489 4489 4489 4489 4489 4489 4489 4489 4489 4489 4489 4489 4489 4489 4489 4489 4489 4489 4489 4489 4489 4489 
3731 4192 4486 4503 4503 4503 4503 4503 4503 4503 4503 4503 4503 4503 4503 4503 4503 4503 4503 4503 4503 4503 4503 4503 4503 4503 4503 4503 4503 4503 
3740 4283 4551 4594 4594 4594 4594 4594 4594 4594 4594 4594 4594 4594 4594 4594 4594 4594 4594 4594 4594 4594 4594 4594 4594 4594 4594 4594 4594 4594 
3778 4383 4585 4594 4594 4594 4594 4594 4594 4594 4594 4594 4594 4594 4594 4594 4594 4594 4594 4594 4594 4594 4594 4594 4594 4594 4594 4594 4594 4594 
3813 4464 4654 4654 4654 4654 4654 4654 4654 4654 4654 4654 4654 4654 4654 4654 4654 4654 4654 4654 4654 4654 4654 4654 4654 4654 4654 4654 4654 4654 
3859 4535 4689 4711 4711 4711 4711 4711 4711 4711 4711 4711 4711 4711 4711 4711 4711 4711 4711 4711 4711 4711 4711 4711 4711 4711 4711 4711 4711 4711 
3862 4614 4707 4792 4792 4792 4792 4792 4792 4792 4792 4792 4792 4792 4792 4792 4792 4792 4792 4792 4792 4792 4792 4792 4792 4792 4792 4792 4792 4792 
3922 4694 4757 4792 4792 4792 4792 4792 4792 4792 4792 4792 4792 4792 4792 4792 4792 4792 4792 4792 4792 4792 4792 4792 4792 4792 4792 4792 4792 4792 
3983 4718 4848 4848 4848 4848 4848 4848 4848 4848 4848 4848 4848 4848 4848 4848 4848 4848 4848 4848 4848 4848 4848 4848 4848 4848 4848 4848 4848 4848 
4055 4809 4860 4860 4860 4860 4860 4860 4860 4860 4860 4860 4860 4860 4860 4860 4860 4860 4860 4860 4860 4860 4860 4860 4860 4860 4860 4860 4860 4860 
4106 4848 4955 4955 4955 4955 4955 4955 4955 4955 4955 4955 4955 4955 4955 4955 4955 4955 4955 4955 4955 4955 4955 4955 4955 4955 4955 4955 4955 4955 
4153 4935 5002 5002 5002 5002 5002 5002 5002 5002 5002 5002 5002 5002 5002 5002 5002 5002 5002 5002 5002 5002 5002 5002 5002 5002 5002 5002 5002 5002 
4252 4959 5077 5077 5077 5077 5077 5077 5077 5077 5077 5077 5077 5077 5077 5077 5077 5077 5077 5077 5077 5077 5077 5077 5077 5077 5077 5077 5077 5077 
4321 4992 5139 5139 5139 5139 5139 5139 5139 5139 5139 5139 5139 5139 5139 5139 5139 5139 5139 5139 5139 5139 5139 5139 5139 5139 5139 5139 5139 5139 
4373 5056 5184 5207 5207 5207 5207 5207 5207 5207 5207 5207 5207 5207 5207 5207 5207 5207 5207 5207 5207 5207 5207 5207 5207 5207 5207 5207 5207 5207 
4440 5081 5276 5276 5276 5276 5276 5276 5276 5276 5276 5276 5276 5276 5276 5276 5276 5276 5276 5276 5276 5276 5276 5276 5276 5276 5276 5276 5276 5276 
4508 5133 5334 5334 5334 5334 5334 5334 5334 5334 5334 5334 5334 5334 5334 5334 5334 5334 5334 5334 5334 5334 5334 5334 5334 5334 5334 5334 5334 5334 
4586 5173 5385 5385 5385 5385 5385 5385 5385 5385 5385 5385 5385 5385 5385 5385 5385 5385 5385 5385 5385 5385 5385 5385 5385 5385 5385 5385 5385 5385 
4634 5256 5404 5404 5404 5404 5404 5404 5404 5404 5404 5404 5404 5404 5404 5404 5404 5404 5404 5404 5404 5404 5404 5404 5404 5404 5404 5404 5404 5404 
4733 5276 5446 5476 5476 5476 5476 5476 5476 5476 5476 5476 5476 5476 5476 5476 5476 5476 5476 5476 5476 5476 5476 5476 5476 5476 5476 5476 5476 5476 
4810 5278 5521 5521 5521 5521 5521 5521 5521 5521 5521 5521 5521 5521 5521 5521 5521 5521 5521 5521 5521 5521 5521 5521 5521 5521 5521 5521 5521 5521 
4905 5359 5522 5533 5533 5533 5533 5533 5533 5533 5533 5533 5533 5533 5533 5533 5533 5533 5533 5533 5533 5533 5533 5533 5533 5533 5533 5533 5533 5533 
4954 5413 5601 5601 5601 5601 5601 5601 5601 5601 5601 5601 5601 5601 5601 5601 5601 5601 5601 5601 5601 5601 5601 5601 5601 5601 5601 5601 5601 5601 
4982 5476 5624 5686 5686 5686 5686 5686 5686 5686 5686 5686 5686 5686 5686 5686 5686 5686 5686 5686 5686 5686 5686 5686 5686 5686 5686 5686 5686 5686 
5006 5505 5682 5742 5742 5742 5742 5742 5742 5742 5742 5742 5742 5742 5742 5742 5742 5742 5742 5742 5742 5742 5742 5742 5742 5742 5742 5742 5742 5742 
5068 5589 5705 5749 5749 5749 5749 5749 5749 5749 5749 5749 5749 5749 5749 5749 5749 5749 5749 5749 5749 5749 5749 5749 5749 5749 5749 5749 5749 5749 
5140 5599 5782 5782 5782 5782 5782 5782 5782 5782 5782 5782 5782 5782 5782 5782 5782 5782 5782 5782 5782 5782 5782 5782 5782 5782 5782 5782 5782 5782 
5195 5616 5855 5868 5868 5868 5868 5868 5868 5868 5868 5868 5868 5868 5868 5868 5868 5868 5868 5868 5868 5868 5868 5868 5868 5868 5868 5868 5868 5868 
5256 5659 5916 5916 5916 5916 5916 5916 5916 5916 5916 5916 5916 5916 5916 5916 5916 5916 5916 5916 5916 5916 5916 5916 5916 5916 5916 5916 5916 5916 
5294 5670 5952 6008 6008 6008 6008 6008 6008 6008 6008 6008 6008 6008 6008 6008 6008 6008 6008 6008 6008 6008 6008 6008 6008 6008 6008 6008 6008 6008 
5378 5701 6002 6008 6008 6008 6008 6008 6008 6008 6008 6008 6008 6008 6008 6008 6008 6008 6008 6008 6008 6008 6008 6008 6008 6008 6008 6008 6008 6008 
5393 5720 6068 6131 6131 6131 6131 6131 6131 6131 6131 6131 6131 6131 6131 6131 6131 6131 6131 6131 6131 6131 6131 6131 6131 6131 6131 6131 6131 6131 
5402 5814 6136 6136 6136 6136 6136 6136 6136 6136 6136 6136 6136 6136 6136 6136 6136 6136 6136 6136 6136 6136 6136 6136 6136 6136 6136 6136 6136 6136 
5458 5895 6144 6164 6164 6164 6164 6164 6164 6164 6164 6164 6164 6164 6164 6164 6164 6164 6164 6164 6164 6164 6164 6164 6164 6164 6164 6164 6164 6164 
5475 5968 6211 6211 6211 6211 6211 6211 6211 6211 6211 6211 6211 6211 6211 6211 6211 6211 6211 6211 6211 6211 6211 6211 6211 6211 6211 6211 6211 6211 
5512 5981 6297 6316 6316 6316 6316 6316 6316 6316 6316 6316 6316 6316 6316 6316 6316 6316 6316 6316 6316 6316 6316 6316 6316 6316 6316 6316 6316 6316 
5552 6017 6359 6359 6359 6359 6359 6359 6359 6359 6359 6359 6359 6359 6359 6359 6359 6359 6359 6359 6359 6359 6359 6359 6359 6359 6359 6359 6359 6359 
5558 6041 6428 6498 6498 6498 6498 6498 6498 6498 6498 6498 6498 6498 6498 6498 6498 6498 6498 6498 6498 6498 6498 6498 6498 6498 6498 6498 6498 6498 
5657 6064 6474 6498 6498 6498 6498 6498 6498 6498 6498 6498 6498 6498 6498 6498 6498 6498 6498 6498 6498 6498 6498 6498 6498 6498 6498 6498 6498 6498 
5663 6089 6500 6593 6593 6593 6593 6593 6593 6593 6593 6593 6593 6593 6593 6593 6593 6593 6593 6593 6593 6593 6593 6593 6593 6593 6593 6593 6593 6593 
5677 6126 6588 6593 6593 6593 6593 6593 6593 6593 6593 6593 6593 6593 6593 6593 6593 6593 6593 6593 6593 6593 6593 6593 6593 6593 6593 6593 6593 6593 
5714 6196 6636 6636 6636 6636 6636 6636 6636 6636 6636 6636 6636 6636 6636 6636 6636 6636 6636 6636 6636 6636 6636 6636 6636 6636 6636 6636 6636 6636 
5753 6223 6639 6702 6702 6702 6702 6702 6702 6702 6702 6702 6702 6702 6702 6702 6702 6702 6702 6702 6702 6702 6702 6702 6702 6702 6702 6702 6702 6702 
5754 6317 6695 6702 6702 6702 6702 6702 6702 6702 6702 6702 6702 6702 6702 6702 6702 6702 6702 6702 6702 6702 6702 6702 6702 6702 6702 6702 6702 6702 
5804 6377 6723 6723 6723 6723 6723 6723 6723 6723 6723 6723 6723 6723 6723 6723 6723 6723 6723 6723 6723 6723 6723 6723 6723 6723 6723 6723 6723 6723 
5870 6430 6743 6743 6743 6743 6743 6743 6743 6743 6743 6743 6743 6743 6743 6743 6743 6743 6743 6743 6743 6743 6743 6743 6743 6743 6743 6743 6743 6743 
5906 6439 6839 6839 6839 6839 6839 6839 6839 6839 6839 6839 6839 6839 6839 6839 6839 6839 6839 6839 6839 6839 6839 6839 6839 6839 6839 6839 6839 6839 
5962 6501 6863 6863 6863 6863 6863 6863 6863 6863 6863 6863 6863 6863 6863 6863 6863 6863 6863 6863 6863 6863 6863 6863 6863 6863 6863 6863 6863 6863 
5992 6566 6918 6918 6918 6918 6918 6918 6918 6918 6918 6918 6918 6918 6918 6918 6918 6918 6918 6918 6918 6918 6918 6918 6918 6918 6918 6918 6918 6918 
6052 6630 6942 6942 6942 6942 6942 6942 6942 6942 6942 6942 6942 6942 6942 6942 6942 6942 6942 6942 6942 6942 6942 6942 6942 6942 6942 6942 6942 6942 
6075 6663 6950 7030 7030 7030 7030 7030 7030 7030 7030 7030 7030 7030 7030 7030 7030 7030 7030 7030 7030 7030 7030 7030 7030 7030 7030 7030 7030 7030 
6129 6665 7044 7044 7044 7044 7044 7044 7044 7044 7044 7044 7044 7044 7044 7044 7044 7044 7044 7044 7044 7044 7044 7044 7044 7044 7044 7044 7044 7044 
6142 6710 7108 7108 7108 7108 7108 7108 7108 7108 7108 7108 7108 7108 7108 7108 7108 7108 7108 7108 7108 7108 7108 7108 7108 7108 7108 7108 7108 7108 
6180 6772 7137 7137 7137 7137 7137 7137 7137 7137 7137 7137 7137 7137 7137 7137 7137 7137 7137 7137 7137 7137 7137 7137 7137 7137 7137 7137 7137 7137 
6201 6851 7150 7150 7150 7150 7150 7150 7150 7150 7150 7150 7150 7150 7150 7150 7150 7150 7150 7150 7150 7150 7150 7150 7150 7150 7150 7150 7150 7150 
6221 6884 7212 7212 7212 7212 7212 7212 7212 7212 7212 7212 7212 7212 7212 7212 7212 7212 7212 7212 7212 7212 7212 7212 7212 7212 7212 7212 7212 7212 
6280 6893 7252 7258 7258 7258 7258 7258 7258 7258 7258 7258 7258 7258 7258 7258 7258 7258 7258 7258 7258 7258 7258 7258 7258 7258 7258 7258 7258 7258 
6290 6898 7261 7358 7358 7358 7358 7358 7358 7358 7358 7358 7358 7358 7358 7358 7358 7358 7358 7358 7358 7358 7358 7358 7358 7358 7358 7358 7358 7358 
6305 6983 7290 7358 7358 7358 7358 7358 7358 7358 7358 7358 7358 7358 7358 7358 7358 7358 7358 7358 7358 7358 7358 7358 7358 7358 7358 7358 7358 7358 
6378 7024 7311 7358 7358 7358 7358 7358 7358 7358 7358 7358 7358 7358 7358 7358 7358 7358 7358 7358 7358 7358 7358 7358 7358 7358 7358 7358 7358 7358 
6383 7034 7396 7430 7430 7430 7430 7430 7430 7430 7430 7430 7430 7430 7430 7430 7430 7430 7430 7430 7430 7430 7430 7430 7430 7430 7430 7430 7430 7430 
6419 7113 7406 7430 7430 7430 7430 7430 7430 7430 7430 7430 7430 7430 7430 7430 7430 7430 7430 7430 7430 7430 7430 7430 7430 7430 7430 7430 7430 7430 
6425 7176 7446 7446 7446 7446 7446 7446 7446 7446 7446 7446 7446 7446 7446 7446 7446 7446 7446 7446 7446 7446 7446 7446 7446 7446 7446 7446 7446 7446 
6469 7212 7487 7487 7487 7487 7487 7487 7487 7487 7487 7487 7487 7487 7487 7487 7487 7487 7487 7487 7487 7487 7487 7487 7487 7487 7487 7487 7487 7487 
6491 7213 7584 7584 7584 7584 7584 7584 7584 7584 7584 7584 7584 7584 7584 7584 7584 7584 7584 7584 7584 7584 7584 7584 7584 7584 7584 7584 7584 7584 
6547 7222 7616 7642 7642 7642 7642 7642 7642 7642 7642 7642 7642 7642 7642 7642 7642 7642 7642 7642 7642 7642 7642 7642 7642 7642 7642 7642 7642 7642 
6605 7225 7626 7692 7692 7692 7692 7692 7692 7692 7692 7692 7692 7692 7692 7692 7692 7692 7692 7692 7692 7692 7692 7692 7692 7692 7692 7692 7692 7692 
6612 7283 7662 7695 7695 7695 7695 7695 7695 7695 7695 7695 7695 7695 7695 7695 7695 7695 7695 7695 7695 7695 7695 7695 7695 7695 7695 7695 7695 7695 
6664 7343 7670 7695 7695 7695 7695 7695 7695 7695 7695 7695 7695 7695 7695 7695 7695 7695 7695 7695 7695 7695 7695 7695 7695 7695 7695 7695 7695 7695 
6716 7355 7674 7734 7734 7734 7734 7734 7734 7734 7734 7734 7734 7734 7734 7734 7734 7734 7734 7734 7734 7734 7734 7734 7734 7734 7734 7734 7734 7734 
6723 7412 7713 7734 7734 7734 7734 7734 7734 7734 7734 7734 7734 7734 7734 7734 7734 7734 7734 7734 7734 7734 7734 7734 7734 7734 7734 7734 7734 7734 
6781 7445 7725 7734 7734 7734 7734 7734 7734 7734 7734 7734 7734 7734 7734 7734 7734 7734 7734 7734 7734 7734 7734 7734 7734 7734 7734 7734 7734 7734 
6808 7488 7739 7761 7761 7761 7761 7761 7761 7761 7761 7761 7761 7761 7761 7761 7761 7761 7761 7761 7761 7761 7761 7761 7761 7761 7761 7761 7761 7761 
6843 7510 7781 7781 7781 7781 7781 7781 7781 7781 7781 7781 7781 7781 7781 7781 7781 7781 7781 7781 7781 7781 7781 7781 7781 7781 7781 7781 7781 7781 
6846 7541 7853 7853 7853 7853 7853 7853 7853 7853 7853 7853 7853 7853 7853 7853 7853 7853 7853 7853 7853 7853 7853 7853 7853 7853 7853 7853 7853 7853 
6930 7558 7854 7854 7854 7854 7854 7854 7854 7854 7854 7854 7854 7854 7854 7854 7854 7854 7854 7854 7854 7854 7854 7854 7854 7854 7854 7854 7854 7854 
6976 7575 7892 7892 7892 7892 7892 7892 7892 7892 7892 7892 7892 7892 7892 7892 7892 7892 7892 7892 7892 7892 7892 7892 7892 7892 7892 7892 7892 7892 
6991 7636 7907 7907 7907 7907 7907 7907 7907 7907 7907 7907 7907 7907 7907 7907 7907 7907 7907 7907 7907 7907 7907 7907 7907 7907 7907 7907 7907 7907 
7013 7641 7982 7982 7982 7982 7982 7982 7982 7982 7982 7982 7982 7982 7982 7982 7982 7982 7982 7982 7982 7982 7982 7982 7982 7982 7982 7982 7982 7982 
7050 7679 7987 7987 7987 7987 7987 7987 7987 7987 7987 7987 7987 7987 7987 7987 7987 7987 7987 7987 7987 7987 7987 7987 7987 7987 7987 7987 7987 7987 
7064 7729 7997 8011 8011 8011 8011 8011 8011 8011 8011 8011 8011 8011 8011 8011 8011 8011 8011 8011 8011 8011 8011 8011 8011 8011 8011 8011 8011 8011 
7112 7734 8022 8022 8022 8022 8022 8022 8022 8022 8022 8022 8022 8022 8022 8022 8022 8022 8022 8022 8022 8022 8022 8022 8022 8022 8022 8022 8022 8022 
7122 7740 8034 8087 8087 8087 8087 8087 8087 8087 8087 8087 8087 8087 8087 8087 8087 8087 8087 8087 8087 8087 8087 8087 8087 8087 8087 8087 8087 8087 
7155 7759 8055 8087 8087 8087 8087 8087 8087 8087 8087 8087 8087 8087 8087 8087 8087 8087 8087 8087 8087 8087 8087 8087 8087 8087 8087 8087 8087 8087 
7160 7792 8088 8088 8088 8088 8088 8088 8088 8088 8088 8088 8088 8088 8088 8088 8088 8088 8088 8088 8088 8088 8088 8088 8088 8088 8088 8088 8088 8088 
7173 7821 8127 8127 8127 8127 8127 8127 8127 8127 8127 8127 8127 8127 8127 8127 8127 8127 8127 8127 8127 8127 8127 8127 8127 8127 8127 8127 8127 8127 
7176 7847 8167 8167 8167 8167 8167 8167 8167 8167 8167 8167 8167 8167 8167 8167 8167 8167 8167 8167 8167 8167 8167 8167 8167 8167 8167 8167 8167 8167 
7204 7853 8187 8187 8187 8187 8187 8187 8187 8187 8187 8187 8187 8187 8187 8187 8187 8187 8187 8187 8187 8187 8187 8187 8187 8187 8187 8187 8187 8187 
7215 7883 8191 8191 8191 8191 8191 8191 8191 8191 8191 8191 8191 8191 8191 8191 8191 8191 8191 8191 8191 8191 8191 8191 8191 8191 8191 8191 8191 8191 
7217 7889 8212 8212 8212 8212 8212 8212 8212 8212 8212 8212 8212 8212 8212 8212 8212 8212 8212 8212 8212 8212 8212 8212 8212 8212 8212 8212 8212 8212 
Sequência de Tarefas - Solução Final
7 41 21 67 2 51 3 49 102 34 26 136 27 59 132 75 48 61 18 110 115 117 6 45 72 116 43 108 62 36 44 46 57 15 65 32 10 29 4 12 66 74 70 47 50 37 54 125 19 148 105 30 68 5 126 77 135 14 128 100 13 55 42 131 80 31 11 149 107 92 81 137 134 86 53 85 93 144 88 69 94 25 111 60 33 52 124 71 139 58 103 20 79 40 121 64 147 24 127 23 98 145 9 113 73 104 119 96 97 114 35 91 141 130 142 109 22 17 89 112 28 133 143 146 101 8 1 39 99 38 123 87 63 83 150 118 95 82 76 140 56 90 16 84 138 129 78 122 106 120 

Squencia que diminui o atraso Maximo:
Novo Atraso = 646
94 139 40 30 49 100 34 2 135 144 109 17 112 73 149 85 54 127 15 79 37 3 25 115 120 50 51 108 89 65 6 46 72 39 87 8 21 9 81 124 137 118 62 27 14 4 38 32 116 47 75 11 59 148 29 63 82 98 42 105 97 67 33 93 142 55 123 113 121 88 68 52 13 90 128 91 150 22 16 10 44 70 80 5 83 110 140 103 53 77 76 138 45 74 147 78 130 133 131 36 129 107 19 126 20 145 43 24 7 35 141 58 28 119 23 101 143 114 57 12 41 99 132 92 56 136 134 95 86 60 102 146 66 125 84 96 117 61 48 106 26 111 122 31 104 64 1 18 71 69 

Squencia que diminui o atraso Maximo:
Novo Atraso = 573
76 3 146 147 138 58 122 9 127 129 49 116 106 142 32 149 84 95 78 54 81 23 65 55 63 135 89 52 144 60 24 26 117 133 41 75 109 47 12 148 33 28 42 44 38 56 124 69 130 94 2 77 104 105 72 123 103 93 143 29 107 45 128 21 7 34 15 13 48 46 87 88 1 98 126 30 70 40 86 8 91 113 120 17 112 37 36 139 35 140 50 62 102 43 59 100 114 74 5 85 68 96 6 108 19 66 131 4 64 97 83 14 121 53 18 110 11 20 51 150 118 67 80 111 99 136 137 132 119 125 134 31 115 145 71 141 61 101 73 10 90 27 22 39 16 79 92 82 57 25 

Squencia que diminui o atraso Maximo:
Novo Atraso = 557
137 122 120 91 68 14 37 95 75 140 38 74 76 15 11 48 141 102 134 6 55 113 70 18 100 54 72 17 45 147 21 36 86 119 150 47 57 34 22 43 110 101 51 28 93 82 148 30 52 62 3 149 61 116 1 26 16 33 67 40 9 35 144 132 94 79 97 56 96 99 49 64 98 115 109 135 32 92 85 8 133 83 10 66 59 50 90 105 69 130 126 146 111 4 108 89 12 129 24 106 71 53 31 87 128 107 13 142 143 104 125 58 19 42 123 41 20 5 145 27 29 77 118 103 117 63 44 78 136 2 84 121 112 80 23 65 60 7 131 139 81 88 73 124 127 138 46 39 114 25 

Squencia que diminui o atraso Maximo:
Novo Atraso = 405
33 36 132 85 125 130 102 141 64 56 7 28 65 72 86 117 13 66 139 78 77 79 109 57 133 25 61 103 128 6 126 138 47 120 83 119 80 98 20 146 23 107 15 112 69 46 41 101 2 52 129 100 29 105 73 148 48 114 49 136 135 106 131 18 88 122 116 3 104 39 123 93 60 43 51 111 14 16 62 87 70 97 92 37 24 19 140 10 89 144 127 137 121 147 74 4 84 34 145 150 113 35 149 30 63 54 26 5 38 45 21 17 75 118 143 53 124 44 22 110 68 81 8 59 27 1 134 55 42 96 99 76 142 108 11 71 115 58 94 32 90 82 67 31 12 40 9 50 95 91 
Atraso Máximo: 405
Tempo: 0.05218 segundos
